unsat
(forall ((A (_ BitVec 20))
         (B (_ BitVec 20))
         (C (_ BitVec 20))
         (D (_ BitVec 20))
         (E (_ BitVec 20))
         (F (_ BitVec 20))
         (G (_ BitVec 20))
         (H (_ BitVec 20))
         (I (_ BitVec 20))
         (J (_ BitVec 20))
         (K (_ BitVec 20))
         (L (_ BitVec 18))
         (M (_ BitVec 20))
         (N (_ BitVec 20))
         (O (_ BitVec 20))
         (P (_ BitVec 20))
         (Q (_ BitVec 20))
         (R (_ BitVec 20))
         (S (_ BitVec 20))
         (T (_ BitVec 20))
         (U (_ BitVec 20))
         (V (_ BitVec 17))
         (W (_ BitVec 17))
         (X (_ BitVec 20))
         (Y (_ BitVec 17))
         (Z (_ BitVec 17))
         (A1 (_ BitVec 20))
         (B1 (_ BitVec 20))
         (C1 (_ BitVec 20))
         (D1 (_ BitVec 20))
         (E1 (_ BitVec 20))
         (F1 (_ BitVec 1))
         (G1 (_ BitVec 20))
         (H1 (_ BitVec 17))
         (I1 (_ BitVec 17))
         (J1 (_ BitVec 20))
         (K1 (_ BitVec 20))
         (L1 (_ BitVec 20))
         (M1 (_ BitVec 20))
         (N1 (_ BitVec 20))
         (O1 (_ BitVec 1))
         (P1 (_ BitVec 1))
         (Q1 (_ BitVec 20))
         (R1 (_ BitVec 20))
         (S1 (_ BitVec 18))
         (T1 (_ BitVec 20))
         (U1 (_ BitVec 20))
         (V1 (_ BitVec 20))
         (W1 (_ BitVec 20))
         (X1 (_ BitVec 20))
         (Y1 (_ BitVec 20))
         (Z1 (_ BitVec 20))
         (A2 (_ BitVec 18))
         (B2 (_ BitVec 17))
         (C2 (_ BitVec 1))
         (D2 (_ BitVec 14))
         (E2 (_ BitVec 17))
         (F2 (_ BitVec 38))
         (G2 (_ BitVec 20))
         (H2 (_ BitVec 16))
         (I2 (_ BitVec 38))
         (J2 (_ BitVec 30))
         (K2 (_ BitVec 30))
         (L2 (_ BitVec 20))
         (M2 (_ BitVec 1))
         (N2 (_ BitVec 20))
         (O2 (_ BitVec 20))
         (P2 (_ BitVec 20))
         (Q2 (_ BitVec 20))
         (R2 (_ BitVec 16))
         (S2 (_ BitVec 20))
         (T2 (_ BitVec 30))
         (U2 (_ BitVec 1))
         (V2 (_ BitVec 38))
         (W2 (_ BitVec 30)))
  (! (= (INV!slice!1 A
                     B
                     C
                     D
                     E
                     F
                     G
                     H
                     I
                     J
                     K
                     L
                     M
                     N
                     O
                     P
                     Q
                     R
                     S
                     T
                     U
                     V
                     W
                     X
                     Y
                     Z
                     A1
                     B1
                     C1
                     D1
                     E1
                     F1
                     G1
                     H1
                     I1
                     J1
                     K1
                     L1
                     M1
                     N1
                     O1
                     P1
                     Q1
                     R1
                     S1
                     T1
                     U1
                     V1
                     W1
                     X1
                     Y1
                     Z1
                     A2
                     B2
                     C2
                     D2
                     E2
                     F2
                     G2
                     H2
                     I2
                     J2
                     K2
                     L2
                     M2
                     N2
                     O2
                     P2
                     Q2
                     R2
                     S2
                     T2
                     U2
                     V2
                     W2)
        (and (= ((_ extract 16 3) Z) #b00000000000000)
             (= ((_ extract 16 3) H1) #b00000000000000)
             (= ((_ extract 16 3) V) #b00000000000000)
             (= ((_ extract 16 3) I1) #b00000000000000)
             (= ((_ extract 16 3) W) #b00000000000000)
             (= ((_ extract 16 3) B2) #b00000000000000)
             (= ((_ extract 16 3) Y) #b00000000000000)
             (= ((_ extract 16 3) E2) #b00000000000000)))
     :weight 0))
